p cnf 330 47
0 0 0
-2 -4 0
4 2 0
-4 -8 0
-4 -2 0
0 4 0
8 4 0
-7 -10 0
-8 -4 0
10 7 0
-10 -7 0
-11 -13 0
-11 -18 0
-11 -26 0
13 18 26 11 0
-13 -18 0
-13 -26 0
-13 -11 0
18 26 13 11 0
-15 -23 0
-16 -18 0
-16 -24 0
18 16 0
-18 -26 0
-18 -24 0
-18 -16 0
-18 -13 0
-18 -11 0
23 15 0
24 16 0
24 18 0
26 18 13 11 0
-23 -15 0
-24 -26 0
-24 -16 0
-24 -18 0
26 24 0
-26 -24 0
-26 -18 0
-26 -13 0
-26 -11 0
-27 -29 0
29 27 0
-29 -27 0
-30 -32 0
32 30 0
-32 -30 0
